label, x, y, z - modified : simcell_3.0 2019-08-30 12:26:25.169651 - modified : simcell_3.0 2019-10-06 22:10:02.595991
1.0
34.92441373 0.00000000 -0.05875562
17.46334563 17.94908543 1.19864621
0.00227753 0.00000000 2.45604805
Fe C 
135 2 
C
0.00089354 -0.00079514 -0.03761063
0.06931425 -0.00079173 0.65983049
0.13624291 -0.00078910 0.33432935
0.20249847 -0.00078719 -0.01623654
0.26919736 -0.00078592 0.61041733
0.33494480 -0.00078521 0.22501530
0.40081148 -0.00078500 -0.16231450
0.46748706 -0.00078520 0.45230002
0.53326031 -0.00078574 0.07898792
0.59951817 -0.00078655 -0.27152734
0.66737748 -0.00078755 0.40303867
0.73487489 -0.00078866 0.10067987
0.80257324 -0.00078981 -0.18609938
0.87109272 -0.00079093 0.53196844
0.93868473 -0.00079194 0.25003512
-0.02026470 0.10883099 0.26413572
0.04661242 0.10948585 -0.05030535
0.11371378 0.11034861 0.61172412
0.17950974 0.11078477 0.24978004
0.24543006 0.11028674 -0.13301824
0.31239558 0.10978328 0.47573263
0.37792458 0.11028676 0.08398445
0.44334122 0.11078497 -0.29929273
0.51050639 0.11034928 0.33923887
0.57755427 0.10948745 0.00218871
0.64509466 0.10883412 -0.31152697
0.71363037 0.10891967 0.39579031
0.78103555 0.10949779 0.11542500
0.84861405 0.10949679 -0.16247815
0.91753250 0.10891675 0.55773480
-0.04190071 0.21902496 0.57064384
0.02416767 0.22059415 0.24354076
0.08988328 0.22205956 -0.10389184
0.15658997 0.22238191 0.52447783
0.22290512 0.22080019 0.12461018
0.28861281 0.22079999 -0.28483559
0.35425503 0.22238141 0.31371804
0.42036132 0.22205898 -0.05756071
0.48756050 0.22059387 -0.40347835
0.55614501 0.21902550 0.27105077
0.62388033 0.21817568 -0.03340033
0.69124937 0.21896563 -0.31354397
0.75937182 0.22000777 0.42086758
0.82762234 0.21896383 0.15632627
0.89579129 0.21817224 -0.12303028
-0.06556412 0.33013409 -0.11853646
0.00101811 0.33221051 0.54605716
0.06676884 0.33392233 0.19401344
0.13285063 0.33400936 -0.18892826
0.20048276 0.33096085 0.36446721
0.26410318 0.33400864 -0.08519904
0.33027365 0.33392104 -0.46803493
0.39868476 0.33220896 0.18167376
0.46644190 0.33013274 -0.15160093
0.53419128 0.32825872 -0.46955353
0.60266049 0.32741862 0.23387052
0.66955147 0.32950787 -0.02029955
0.73745437 0.32950707 -0.24815801
0.80738758 0.32741630 0.49976774
0.87407943 0.32825511 0.20233245
-0.08944041 0.44172966 0.20170564
-0.02379705 0.44380699 -0.13339200
0.04316340 0.44542157 0.52267528
0.11002923 0.44611762 0.13921776
0.17347392 0.44611709 -0.52615419
0.24197219 0.44542006 0.09109933
0.30964017 0.44380472 -0.25118692
0.37738653 0.44172702 -0.58416250
0.44602762 0.43955526 0.08927236
0.51348884 0.43768601 -0.22850200
0.58046912 0.43661536 -0.52322169
0.64761801 0.44087160 0.30973910
0.71814730 0.43661403 0.14697973
0.78404426 0.43768352 -0.14883032
0.85054120 0.43955190 0.53149200
-0.11384795 0.55337607 0.53147740
-0.04827835 0.55524445 0.21180003
0.01761867 0.55631394 -0.08400999
0.08907527 0.55205636 0.75323050
0.15529690 0.55631261 0.58619160
0.22227703 0.55524195 0.29147178
0.29066563 0.55337271 0.97369709
0.35837940 0.55120095 0.64713227
0.42612576 0.54912325 0.31415670
0.49472115 0.54750791 0.97187011
0.56229198 0.54681088 0.58912408
0.62573676 0.54681035 -0.07624825
0.69352982 0.54750640 0.54029410
0.75956295 0.54912098 0.19636172
0.82520632 0.55119831 -0.13873591
-0.13831350 0.66467286 -0.13936272
-0.07069433 0.66551167 0.56320168
-0.00168840 0.66342090 0.31112782
0.06621446 0.66342010 0.08326935
0.13403285 0.66550935 0.82909900
0.20157465 0.66466925 0.53252331
0.26932403 0.66279523 0.21457071
0.33800849 0.66071901 0.88129568
0.40549222 0.65900692 0.53100472
0.47166283 0.65891933 0.14816869
0.53621055 0.66196712 0.69850206
0.60291537 0.65891860 0.25189789
0.66899706 0.65900564 -0.13104370
0.73567511 0.66071746 0.51691224
0.80133002 0.66279387 0.18150619
-0.16002539 0.77475574 0.18600001
-0.09185641 0.77396414 -0.09335651
-0.02267857 0.77292022 0.64210186
0.04451662 0.77396235 0.37651380
0.11188551 0.77475231 0.09637003
0.18054820 0.77390248 0.79191865
0.24820544 0.77233410 0.46644811
0.31540461 0.77086900 0.12053046
0.38243831 0.77054656 0.74925129
0.44715313 0.77212799 0.34780532
0.51286085 0.77212780 -0.06164049
0.58010328 0.77054607 0.53849156
0.64588262 0.77086843 0.16686157
0.71159825 0.77233383 -0.18057102
0.77859394 0.77390303 0.49232557
-0.18083928 0.88401125 0.50523461
-0.11284811 0.88343122 0.22544791
-0.04526965 0.88343021 -0.05245527
0.02306294 0.88400834 0.66717917
0.09067125 0.88409389 0.37449671
0.15821163 0.88344056 0.06078102
0.22618684 0.88257872 0.72373053
0.29242462 0.88214304 0.36226250
0.35784141 0.88264125 -0.02101479
0.42429767 0.88314473 0.58723675
0.49033589 0.88264127 0.19598793
0.55625617 0.88214324 -0.18681031
0.62297946 0.88257940 0.45124528
0.68915348 0.88344216 0.11327508
0.75603050 0.88409702 -0.20116604
1.00641861 0.99450870 1.00092731
1.00641861 0.99450870 1.00092731
